c *********************************
c * Circuit generated by BenCGen
c *
c * CarryLookaheadBlock_73_73_73_InOutT
c *
c * Ports with 1 gate(s): 2
c * Ports with 2 gate(s): 312
c * Ports with 3 gate(s): 72
c * Ports with 4 gate(s): 54
c * Ports with 5 gate(s): 36
c * Total gates: 476
c *********************************
p cnf 622 1860
1 222 0
-1 -222 0
1 -221 0
222 -221 0
-1 -222 221 0
1 74 -223 0
-1 74 223 0
1 -74 223 0
-1 -74 -223 0
1 -296 0
74 -296 0
-1 -74 296 0
2 75 -224 0
-2 75 224 0
2 -75 224 0
-2 -75 -224 0
2 -297 0
75 -297 0
-2 -75 297 0
3 76 -225 0
-3 76 225 0
3 -76 225 0
-3 -76 -225 0
3 -298 0
76 -298 0
-3 -76 298 0
4 77 -226 0
-4 77 226 0
4 -77 226 0
-4 -77 -226 0
4 -299 0
77 -299 0
-4 -77 299 0
5 78 -227 0
-5 78 227 0
5 -78 227 0
-5 -78 -227 0
5 -300 0
78 -300 0
-5 -78 300 0
6 79 -228 0
-6 79 228 0
6 -79 228 0
-6 -79 -228 0
6 -301 0
79 -301 0
-6 -79 301 0
7 80 -229 0
-7 80 229 0
7 -80 229 0
-7 -80 -229 0
7 -302 0
80 -302 0
-7 -80 302 0
8 81 -230 0
-8 81 230 0
8 -81 230 0
-8 -81 -230 0
8 -303 0
81 -303 0
-8 -81 303 0
9 82 -231 0
-9 82 231 0
9 -82 231 0
-9 -82 -231 0
9 -304 0
82 -304 0
-9 -82 304 0
10 83 -232 0
-10 83 232 0
10 -83 232 0
-10 -83 -232 0
10 -305 0
83 -305 0
-10 -83 305 0
11 84 -233 0
-11 84 233 0
11 -84 233 0
-11 -84 -233 0
11 -306 0
84 -306 0
-11 -84 306 0
12 85 -234 0
-12 85 234 0
12 -85 234 0
-12 -85 -234 0
12 -307 0
85 -307 0
-12 -85 307 0
13 86 -235 0
-13 86 235 0
13 -86 235 0
-13 -86 -235 0
13 -308 0
86 -308 0
-13 -86 308 0
14 87 -236 0
-14 87 236 0
14 -87 236 0
-14 -87 -236 0
14 -309 0
87 -309 0
-14 -87 309 0
15 88 -237 0
-15 88 237 0
15 -88 237 0
-15 -88 -237 0
15 -310 0
88 -310 0
-15 -88 310 0
16 89 -238 0
-16 89 238 0
16 -89 238 0
-16 -89 -238 0
16 -311 0
89 -311 0
-16 -89 311 0
17 90 -239 0
-17 90 239 0
17 -90 239 0
-17 -90 -239 0
17 -312 0
90 -312 0
-17 -90 312 0
18 91 -240 0
-18 91 240 0
18 -91 240 0
-18 -91 -240 0
18 -313 0
91 -313 0
-18 -91 313 0
19 92 -241 0
-19 92 241 0
19 -92 241 0
-19 -92 -241 0
19 -314 0
92 -314 0
-19 -92 314 0
20 93 -242 0
-20 93 242 0
20 -93 242 0
-20 -93 -242 0
20 -315 0
93 -315 0
-20 -93 315 0
21 94 -243 0
-21 94 243 0
21 -94 243 0
-21 -94 -243 0
21 -316 0
94 -316 0
-21 -94 316 0
22 95 -244 0
-22 95 244 0
22 -95 244 0
-22 -95 -244 0
22 -317 0
95 -317 0
-22 -95 317 0
23 96 -245 0
-23 96 245 0
23 -96 245 0
-23 -96 -245 0
23 -318 0
96 -318 0
-23 -96 318 0
24 97 -246 0
-24 97 246 0
24 -97 246 0
-24 -97 -246 0
24 -319 0
97 -319 0
-24 -97 319 0
25 98 -247 0
-25 98 247 0
25 -98 247 0
-25 -98 -247 0
25 -320 0
98 -320 0
-25 -98 320 0
26 99 -248 0
-26 99 248 0
26 -99 248 0
-26 -99 -248 0
26 -321 0
99 -321 0
-26 -99 321 0
27 100 -249 0
-27 100 249 0
27 -100 249 0
-27 -100 -249 0
27 -322 0
100 -322 0
-27 -100 322 0
28 101 -250 0
-28 101 250 0
28 -101 250 0
-28 -101 -250 0
28 -323 0
101 -323 0
-28 -101 323 0
29 102 -251 0
-29 102 251 0
29 -102 251 0
-29 -102 -251 0
29 -324 0
102 -324 0
-29 -102 324 0
30 103 -252 0
-30 103 252 0
30 -103 252 0
-30 -103 -252 0
30 -325 0
103 -325 0
-30 -103 325 0
31 104 -253 0
-31 104 253 0
31 -104 253 0
-31 -104 -253 0
31 -326 0
104 -326 0
-31 -104 326 0
32 105 -254 0
-32 105 254 0
32 -105 254 0
-32 -105 -254 0
32 -327 0
105 -327 0
-32 -105 327 0
33 106 -255 0
-33 106 255 0
33 -106 255 0
-33 -106 -255 0
33 -328 0
106 -328 0
-33 -106 328 0
34 107 -256 0
-34 107 256 0
34 -107 256 0
-34 -107 -256 0
34 -329 0
107 -329 0
-34 -107 329 0
35 108 -257 0
-35 108 257 0
35 -108 257 0
-35 -108 -257 0
35 -330 0
108 -330 0
-35 -108 330 0
36 109 -258 0
-36 109 258 0
36 -109 258 0
-36 -109 -258 0
36 -331 0
109 -331 0
-36 -109 331 0
37 110 -259 0
-37 110 259 0
37 -110 259 0
-37 -110 -259 0
37 -332 0
110 -332 0
-37 -110 332 0
38 111 -260 0
-38 111 260 0
38 -111 260 0
-38 -111 -260 0
38 -333 0
111 -333 0
-38 -111 333 0
39 112 -261 0
-39 112 261 0
39 -112 261 0
-39 -112 -261 0
39 -334 0
112 -334 0
-39 -112 334 0
40 113 -262 0
-40 113 262 0
40 -113 262 0
-40 -113 -262 0
40 -335 0
113 -335 0
-40 -113 335 0
41 114 -263 0
-41 114 263 0
41 -114 263 0
-41 -114 -263 0
41 -336 0
114 -336 0
-41 -114 336 0
42 115 -264 0
-42 115 264 0
42 -115 264 0
-42 -115 -264 0
42 -337 0
115 -337 0
-42 -115 337 0
43 116 -265 0
-43 116 265 0
43 -116 265 0
-43 -116 -265 0
43 -338 0
116 -338 0
-43 -116 338 0
44 117 -266 0
-44 117 266 0
44 -117 266 0
-44 -117 -266 0
44 -339 0
117 -339 0
-44 -117 339 0
45 118 -267 0
-45 118 267 0
45 -118 267 0
-45 -118 -267 0
45 -340 0
118 -340 0
-45 -118 340 0
46 119 -268 0
-46 119 268 0
46 -119 268 0
-46 -119 -268 0
46 -341 0
119 -341 0
-46 -119 341 0
47 120 -269 0
-47 120 269 0
47 -120 269 0
-47 -120 -269 0
47 -342 0
120 -342 0
-47 -120 342 0
48 121 -270 0
-48 121 270 0
48 -121 270 0
-48 -121 -270 0
48 -343 0
121 -343 0
-48 -121 343 0
49 122 -271 0
-49 122 271 0
49 -122 271 0
-49 -122 -271 0
49 -344 0
122 -344 0
-49 -122 344 0
50 123 -272 0
-50 123 272 0
50 -123 272 0
-50 -123 -272 0
50 -345 0
123 -345 0
-50 -123 345 0
51 124 -273 0
-51 124 273 0
51 -124 273 0
-51 -124 -273 0
51 -346 0
124 -346 0
-51 -124 346 0
52 125 -274 0
-52 125 274 0
52 -125 274 0
-52 -125 -274 0
52 -347 0
125 -347 0
-52 -125 347 0
53 126 -275 0
-53 126 275 0
53 -126 275 0
-53 -126 -275 0
53 -348 0
126 -348 0
-53 -126 348 0
54 127 -276 0
-54 127 276 0
54 -127 276 0
-54 -127 -276 0
54 -349 0
127 -349 0
-54 -127 349 0
55 128 -277 0
-55 128 277 0
55 -128 277 0
-55 -128 -277 0
55 -350 0
128 -350 0
-55 -128 350 0
56 129 -278 0
-56 129 278 0
56 -129 278 0
-56 -129 -278 0
56 -351 0
129 -351 0
-56 -129 351 0
57 130 -279 0
-57 130 279 0
57 -130 279 0
-57 -130 -279 0
57 -352 0
130 -352 0
-57 -130 352 0
58 131 -280 0
-58 131 280 0
58 -131 280 0
-58 -131 -280 0
58 -353 0
131 -353 0
-58 -131 353 0
59 132 -281 0
-59 132 281 0
59 -132 281 0
-59 -132 -281 0
59 -354 0
132 -354 0
-59 -132 354 0
60 133 -282 0
-60 133 282 0
60 -133 282 0
-60 -133 -282 0
60 -355 0
133 -355 0
-60 -133 355 0
61 134 -283 0
-61 134 283 0
61 -134 283 0
-61 -134 -283 0
61 -356 0
134 -356 0
-61 -134 356 0
62 135 -284 0
-62 135 284 0
62 -135 284 0
-62 -135 -284 0
62 -357 0
135 -357 0
-62 -135 357 0
63 136 -285 0
-63 136 285 0
63 -136 285 0
-63 -136 -285 0
63 -358 0
136 -358 0
-63 -136 358 0
64 137 -286 0
-64 137 286 0
64 -137 286 0
-64 -137 -286 0
64 -359 0
137 -359 0
-64 -137 359 0
65 138 -287 0
-65 138 287 0
65 -138 287 0
-65 -138 -287 0
65 -360 0
138 -360 0
-65 -138 360 0
66 139 -288 0
-66 139 288 0
66 -139 288 0
-66 -139 -288 0
66 -361 0
139 -361 0
-66 -139 361 0
67 140 -289 0
-67 140 289 0
67 -140 289 0
-67 -140 -289 0
67 -362 0
140 -362 0
-67 -140 362 0
68 141 -290 0
-68 141 290 0
68 -141 290 0
-68 -141 -290 0
68 -363 0
141 -363 0
-68 -141 363 0
69 142 -291 0
-69 142 291 0
69 -142 291 0
-69 -142 -291 0
69 -364 0
142 -364 0
-69 -142 364 0
70 143 -292 0
-70 143 292 0
70 -143 292 0
-70 -143 -292 0
70 -365 0
143 -365 0
-70 -143 365 0
71 144 -293 0
-71 144 293 0
71 -144 293 0
-71 -144 -293 0
71 -366 0
144 -366 0
-71 -144 366 0
72 145 -294 0
-72 145 294 0
72 -145 294 0
-72 -145 -294 0
72 -367 0
145 -367 0
-72 -145 367 0
73 146 -295 0
-73 146 295 0
73 -146 295 0
-73 -146 -295 0
73 -368 0
146 -368 0
-73 -146 368 0
221 -442 0
223 -442 0
-221 -223 442 0
221 -443 0
223 -443 0
224 -443 0
-221 -223 -224 443 0
296 -444 0
224 -444 0
-296 -224 444 0
221 -445 0
223 -445 0
224 -445 0
225 -445 0
-221 -223 -224 -225 445 0
296 -446 0
224 -446 0
225 -446 0
-296 -224 -225 446 0
297 -447 0
225 -447 0
-297 -225 447 0
221 -448 0
223 -448 0
224 -448 0
225 -448 0
226 -448 0
-221 -223 -224 -225 -226 448 0
296 -449 0
224 -449 0
225 -449 0
226 -449 0
-296 -224 -225 -226 449 0
297 -450 0
225 -450 0
226 -450 0
-297 -225 -226 450 0
298 -451 0
226 -451 0
-298 -226 451 0
-296 369 0
-442 369 0
296 442 -369 0
-297 370 0
-443 370 0
-444 370 0
297 443 444 -370 0
-298 371 0
-445 371 0
-446 371 0
-447 371 0
298 445 446 447 -371 0
-299 372 0
-448 372 0
-449 372 0
-450 372 0
-451 372 0
299 448 449 450 451 -372 0
372 -452 0
227 -452 0
-372 -227 452 0
372 -453 0
227 -453 0
228 -453 0
-372 -227 -228 453 0
300 -454 0
228 -454 0
-300 -228 454 0
372 -455 0
227 -455 0
228 -455 0
229 -455 0
-372 -227 -228 -229 455 0
300 -456 0
228 -456 0
229 -456 0
-300 -228 -229 456 0
301 -457 0
229 -457 0
-301 -229 457 0
372 -458 0
227 -458 0
228 -458 0
229 -458 0
230 -458 0
-372 -227 -228 -229 -230 458 0
300 -459 0
228 -459 0
229 -459 0
230 -459 0
-300 -228 -229 -230 459 0
301 -460 0
229 -460 0
230 -460 0
-301 -229 -230 460 0
302 -461 0
230 -461 0
-302 -230 461 0
-300 373 0
-452 373 0
300 452 -373 0
-301 374 0
-453 374 0
-454 374 0
301 453 454 -374 0
-302 375 0
-455 375 0
-456 375 0
-457 375 0
302 455 456 457 -375 0
-303 376 0
-458 376 0
-459 376 0
-460 376 0
-461 376 0
303 458 459 460 461 -376 0
376 -462 0
231 -462 0
-376 -231 462 0
376 -463 0
231 -463 0
232 -463 0
-376 -231 -232 463 0
304 -464 0
232 -464 0
-304 -232 464 0
376 -465 0
231 -465 0
232 -465 0
233 -465 0
-376 -231 -232 -233 465 0
304 -466 0
232 -466 0
233 -466 0
-304 -232 -233 466 0
305 -467 0
233 -467 0
-305 -233 467 0
376 -468 0
231 -468 0
232 -468 0
233 -468 0
234 -468 0
-376 -231 -232 -233 -234 468 0
304 -469 0
232 -469 0
233 -469 0
234 -469 0
-304 -232 -233 -234 469 0
305 -470 0
233 -470 0
234 -470 0
-305 -233 -234 470 0
306 -471 0
234 -471 0
-306 -234 471 0
-304 377 0
-462 377 0
304 462 -377 0
-305 378 0
-463 378 0
-464 378 0
305 463 464 -378 0
-306 379 0
-465 379 0
-466 379 0
-467 379 0
306 465 466 467 -379 0
-307 380 0
-468 380 0
-469 380 0
-470 380 0
-471 380 0
307 468 469 470 471 -380 0
380 -472 0
235 -472 0
-380 -235 472 0
380 -473 0
235 -473 0
236 -473 0
-380 -235 -236 473 0
308 -474 0
236 -474 0
-308 -236 474 0
380 -475 0
235 -475 0
236 -475 0
237 -475 0
-380 -235 -236 -237 475 0
308 -476 0
236 -476 0
237 -476 0
-308 -236 -237 476 0
309 -477 0
237 -477 0
-309 -237 477 0
380 -478 0
235 -478 0
236 -478 0
237 -478 0
238 -478 0
-380 -235 -236 -237 -238 478 0
308 -479 0
236 -479 0
237 -479 0
238 -479 0
-308 -236 -237 -238 479 0
309 -480 0
237 -480 0
238 -480 0
-309 -237 -238 480 0
310 -481 0
238 -481 0
-310 -238 481 0
-308 381 0
-472 381 0
308 472 -381 0
-309 382 0
-473 382 0
-474 382 0
309 473 474 -382 0
-310 383 0
-475 383 0
-476 383 0
-477 383 0
310 475 476 477 -383 0
-311 384 0
-478 384 0
-479 384 0
-480 384 0
-481 384 0
311 478 479 480 481 -384 0
384 -482 0
239 -482 0
-384 -239 482 0
384 -483 0
239 -483 0
240 -483 0
-384 -239 -240 483 0
312 -484 0
240 -484 0
-312 -240 484 0
384 -485 0
239 -485 0
240 -485 0
241 -485 0
-384 -239 -240 -241 485 0
312 -486 0
240 -486 0
241 -486 0
-312 -240 -241 486 0
313 -487 0
241 -487 0
-313 -241 487 0
384 -488 0
239 -488 0
240 -488 0
241 -488 0
242 -488 0
-384 -239 -240 -241 -242 488 0
312 -489 0
240 -489 0
241 -489 0
242 -489 0
-312 -240 -241 -242 489 0
313 -490 0
241 -490 0
242 -490 0
-313 -241 -242 490 0
314 -491 0
242 -491 0
-314 -242 491 0
-312 385 0
-482 385 0
312 482 -385 0
-313 386 0
-483 386 0
-484 386 0
313 483 484 -386 0
-314 387 0
-485 387 0
-486 387 0
-487 387 0
314 485 486 487 -387 0
-315 388 0
-488 388 0
-489 388 0
-490 388 0
-491 388 0
315 488 489 490 491 -388 0
388 -492 0
243 -492 0
-388 -243 492 0
388 -493 0
243 -493 0
244 -493 0
-388 -243 -244 493 0
316 -494 0
244 -494 0
-316 -244 494 0
388 -495 0
243 -495 0
244 -495 0
245 -495 0
-388 -243 -244 -245 495 0
316 -496 0
244 -496 0
245 -496 0
-316 -244 -245 496 0
317 -497 0
245 -497 0
-317 -245 497 0
388 -498 0
243 -498 0
244 -498 0
245 -498 0
246 -498 0
-388 -243 -244 -245 -246 498 0
316 -499 0
244 -499 0
245 -499 0
246 -499 0
-316 -244 -245 -246 499 0
317 -500 0
245 -500 0
246 -500 0
-317 -245 -246 500 0
318 -501 0
246 -501 0
-318 -246 501 0
-316 389 0
-492 389 0
316 492 -389 0
-317 390 0
-493 390 0
-494 390 0
317 493 494 -390 0
-318 391 0
-495 391 0
-496 391 0
-497 391 0
318 495 496 497 -391 0
-319 392 0
-498 392 0
-499 392 0
-500 392 0
-501 392 0
319 498 499 500 501 -392 0
392 -502 0
247 -502 0
-392 -247 502 0
392 -503 0
247 -503 0
248 -503 0
-392 -247 -248 503 0
320 -504 0
248 -504 0
-320 -248 504 0
392 -505 0
247 -505 0
248 -505 0
249 -505 0
-392 -247 -248 -249 505 0
320 -506 0
248 -506 0
249 -506 0
-320 -248 -249 506 0
321 -507 0
249 -507 0
-321 -249 507 0
392 -508 0
247 -508 0
248 -508 0
249 -508 0
250 -508 0
-392 -247 -248 -249 -250 508 0
320 -509 0
248 -509 0
249 -509 0
250 -509 0
-320 -248 -249 -250 509 0
321 -510 0
249 -510 0
250 -510 0
-321 -249 -250 510 0
322 -511 0
250 -511 0
-322 -250 511 0
-320 393 0
-502 393 0
320 502 -393 0
-321 394 0
-503 394 0
-504 394 0
321 503 504 -394 0
-322 395 0
-505 395 0
-506 395 0
-507 395 0
322 505 506 507 -395 0
-323 396 0
-508 396 0
-509 396 0
-510 396 0
-511 396 0
323 508 509 510 511 -396 0
396 -512 0
251 -512 0
-396 -251 512 0
396 -513 0
251 -513 0
252 -513 0
-396 -251 -252 513 0
324 -514 0
252 -514 0
-324 -252 514 0
396 -515 0
251 -515 0
252 -515 0
253 -515 0
-396 -251 -252 -253 515 0
324 -516 0
252 -516 0
253 -516 0
-324 -252 -253 516 0
325 -517 0
253 -517 0
-325 -253 517 0
396 -518 0
251 -518 0
252 -518 0
253 -518 0
254 -518 0
-396 -251 -252 -253 -254 518 0
324 -519 0
252 -519 0
253 -519 0
254 -519 0
-324 -252 -253 -254 519 0
325 -520 0
253 -520 0
254 -520 0
-325 -253 -254 520 0
326 -521 0
254 -521 0
-326 -254 521 0
-324 397 0
-512 397 0
324 512 -397 0
-325 398 0
-513 398 0
-514 398 0
325 513 514 -398 0
-326 399 0
-515 399 0
-516 399 0
-517 399 0
326 515 516 517 -399 0
-327 400 0
-518 400 0
-519 400 0
-520 400 0
-521 400 0
327 518 519 520 521 -400 0
400 -522 0
255 -522 0
-400 -255 522 0
400 -523 0
255 -523 0
256 -523 0
-400 -255 -256 523 0
328 -524 0
256 -524 0
-328 -256 524 0
400 -525 0
255 -525 0
256 -525 0
257 -525 0
-400 -255 -256 -257 525 0
328 -526 0
256 -526 0
257 -526 0
-328 -256 -257 526 0
329 -527 0
257 -527 0
-329 -257 527 0
400 -528 0
255 -528 0
256 -528 0
257 -528 0
258 -528 0
-400 -255 -256 -257 -258 528 0
328 -529 0
256 -529 0
257 -529 0
258 -529 0
-328 -256 -257 -258 529 0
329 -530 0
257 -530 0
258 -530 0
-329 -257 -258 530 0
330 -531 0
258 -531 0
-330 -258 531 0
-328 401 0
-522 401 0
328 522 -401 0
-329 402 0
-523 402 0
-524 402 0
329 523 524 -402 0
-330 403 0
-525 403 0
-526 403 0
-527 403 0
330 525 526 527 -403 0
-331 404 0
-528 404 0
-529 404 0
-530 404 0
-531 404 0
331 528 529 530 531 -404 0
404 -532 0
259 -532 0
-404 -259 532 0
404 -533 0
259 -533 0
260 -533 0
-404 -259 -260 533 0
332 -534 0
260 -534 0
-332 -260 534 0
404 -535 0
259 -535 0
260 -535 0
261 -535 0
-404 -259 -260 -261 535 0
332 -536 0
260 -536 0
261 -536 0
-332 -260 -261 536 0
333 -537 0
261 -537 0
-333 -261 537 0
404 -538 0
259 -538 0
260 -538 0
261 -538 0
262 -538 0
-404 -259 -260 -261 -262 538 0
332 -539 0
260 -539 0
261 -539 0
262 -539 0
-332 -260 -261 -262 539 0
333 -540 0
261 -540 0
262 -540 0
-333 -261 -262 540 0
334 -541 0
262 -541 0
-334 -262 541 0
-332 405 0
-532 405 0
332 532 -405 0
-333 406 0
-533 406 0
-534 406 0
333 533 534 -406 0
-334 407 0
-535 407 0
-536 407 0
-537 407 0
334 535 536 537 -407 0
-335 408 0
-538 408 0
-539 408 0
-540 408 0
-541 408 0
335 538 539 540 541 -408 0
408 -542 0
263 -542 0
-408 -263 542 0
408 -543 0
263 -543 0
264 -543 0
-408 -263 -264 543 0
336 -544 0
264 -544 0
-336 -264 544 0
408 -545 0
263 -545 0
264 -545 0
265 -545 0
-408 -263 -264 -265 545 0
336 -546 0
264 -546 0
265 -546 0
-336 -264 -265 546 0
337 -547 0
265 -547 0
-337 -265 547 0
408 -548 0
263 -548 0
264 -548 0
265 -548 0
266 -548 0
-408 -263 -264 -265 -266 548 0
336 -549 0
264 -549 0
265 -549 0
266 -549 0
-336 -264 -265 -266 549 0
337 -550 0
265 -550 0
266 -550 0
-337 -265 -266 550 0
338 -551 0
266 -551 0
-338 -266 551 0
-336 409 0
-542 409 0
336 542 -409 0
-337 410 0
-543 410 0
-544 410 0
337 543 544 -410 0
-338 411 0
-545 411 0
-546 411 0
-547 411 0
338 545 546 547 -411 0
-339 412 0
-548 412 0
-549 412 0
-550 412 0
-551 412 0
339 548 549 550 551 -412 0
412 -552 0
267 -552 0
-412 -267 552 0
412 -553 0
267 -553 0
268 -553 0
-412 -267 -268 553 0
340 -554 0
268 -554 0
-340 -268 554 0
412 -555 0
267 -555 0
268 -555 0
269 -555 0
-412 -267 -268 -269 555 0
340 -556 0
268 -556 0
269 -556 0
-340 -268 -269 556 0
341 -557 0
269 -557 0
-341 -269 557 0
412 -558 0
267 -558 0
268 -558 0
269 -558 0
270 -558 0
-412 -267 -268 -269 -270 558 0
340 -559 0
268 -559 0
269 -559 0
270 -559 0
-340 -268 -269 -270 559 0
341 -560 0
269 -560 0
270 -560 0
-341 -269 -270 560 0
342 -561 0
270 -561 0
-342 -270 561 0
-340 413 0
-552 413 0
340 552 -413 0
-341 414 0
-553 414 0
-554 414 0
341 553 554 -414 0
-342 415 0
-555 415 0
-556 415 0
-557 415 0
342 555 556 557 -415 0
-343 416 0
-558 416 0
-559 416 0
-560 416 0
-561 416 0
343 558 559 560 561 -416 0
416 -562 0
271 -562 0
-416 -271 562 0
416 -563 0
271 -563 0
272 -563 0
-416 -271 -272 563 0
344 -564 0
272 -564 0
-344 -272 564 0
416 -565 0
271 -565 0
272 -565 0
273 -565 0
-416 -271 -272 -273 565 0
344 -566 0
272 -566 0
273 -566 0
-344 -272 -273 566 0
345 -567 0
273 -567 0
-345 -273 567 0
416 -568 0
271 -568 0
272 -568 0
273 -568 0
274 -568 0
-416 -271 -272 -273 -274 568 0
344 -569 0
272 -569 0
273 -569 0
274 -569 0
-344 -272 -273 -274 569 0
345 -570 0
273 -570 0
274 -570 0
-345 -273 -274 570 0
346 -571 0
274 -571 0
-346 -274 571 0
-344 417 0
-562 417 0
344 562 -417 0
-345 418 0
-563 418 0
-564 418 0
345 563 564 -418 0
-346 419 0
-565 419 0
-566 419 0
-567 419 0
346 565 566 567 -419 0
-347 420 0
-568 420 0
-569 420 0
-570 420 0
-571 420 0
347 568 569 570 571 -420 0
420 -572 0
275 -572 0
-420 -275 572 0
420 -573 0
275 -573 0
276 -573 0
-420 -275 -276 573 0
348 -574 0
276 -574 0
-348 -276 574 0
420 -575 0
275 -575 0
276 -575 0
277 -575 0
-420 -275 -276 -277 575 0
348 -576 0
276 -576 0
277 -576 0
-348 -276 -277 576 0
349 -577 0
277 -577 0
-349 -277 577 0
420 -578 0
275 -578 0
276 -578 0
277 -578 0
278 -578 0
-420 -275 -276 -277 -278 578 0
348 -579 0
276 -579 0
277 -579 0
278 -579 0
-348 -276 -277 -278 579 0
349 -580 0
277 -580 0
278 -580 0
-349 -277 -278 580 0
350 -581 0
278 -581 0
-350 -278 581 0
-348 421 0
-572 421 0
348 572 -421 0
-349 422 0
-573 422 0
-574 422 0
349 573 574 -422 0
-350 423 0
-575 423 0
-576 423 0
-577 423 0
350 575 576 577 -423 0
-351 424 0
-578 424 0
-579 424 0
-580 424 0
-581 424 0
351 578 579 580 581 -424 0
424 -582 0
279 -582 0
-424 -279 582 0
424 -583 0
279 -583 0
280 -583 0
-424 -279 -280 583 0
352 -584 0
280 -584 0
-352 -280 584 0
424 -585 0
279 -585 0
280 -585 0
281 -585 0
-424 -279 -280 -281 585 0
352 -586 0
280 -586 0
281 -586 0
-352 -280 -281 586 0
353 -587 0
281 -587 0
-353 -281 587 0
424 -588 0
279 -588 0
280 -588 0
281 -588 0
282 -588 0
-424 -279 -280 -281 -282 588 0
352 -589 0
280 -589 0
281 -589 0
282 -589 0
-352 -280 -281 -282 589 0
353 -590 0
281 -590 0
282 -590 0
-353 -281 -282 590 0
354 -591 0
282 -591 0
-354 -282 591 0
-352 425 0
-582 425 0
352 582 -425 0
-353 426 0
-583 426 0
-584 426 0
353 583 584 -426 0
-354 427 0
-585 427 0
-586 427 0
-587 427 0
354 585 586 587 -427 0
-355 428 0
-588 428 0
-589 428 0
-590 428 0
-591 428 0
355 588 589 590 591 -428 0
428 -592 0
283 -592 0
-428 -283 592 0
428 -593 0
283 -593 0
284 -593 0
-428 -283 -284 593 0
356 -594 0
284 -594 0
-356 -284 594 0
428 -595 0
283 -595 0
284 -595 0
285 -595 0
-428 -283 -284 -285 595 0
356 -596 0
284 -596 0
285 -596 0
-356 -284 -285 596 0
357 -597 0
285 -597 0
-357 -285 597 0
428 -598 0
283 -598 0
284 -598 0
285 -598 0
286 -598 0
-428 -283 -284 -285 -286 598 0
356 -599 0
284 -599 0
285 -599 0
286 -599 0
-356 -284 -285 -286 599 0
357 -600 0
285 -600 0
286 -600 0
-357 -285 -286 600 0
358 -601 0
286 -601 0
-358 -286 601 0
-356 429 0
-592 429 0
356 592 -429 0
-357 430 0
-593 430 0
-594 430 0
357 593 594 -430 0
-358 431 0
-595 431 0
-596 431 0
-597 431 0
358 595 596 597 -431 0
-359 432 0
-598 432 0
-599 432 0
-600 432 0
-601 432 0
359 598 599 600 601 -432 0
432 -602 0
287 -602 0
-432 -287 602 0
432 -603 0
287 -603 0
288 -603 0
-432 -287 -288 603 0
360 -604 0
288 -604 0
-360 -288 604 0
432 -605 0
287 -605 0
288 -605 0
289 -605 0
-432 -287 -288 -289 605 0
360 -606 0
288 -606 0
289 -606 0
-360 -288 -289 606 0
361 -607 0
289 -607 0
-361 -289 607 0
432 -608 0
287 -608 0
288 -608 0
289 -608 0
290 -608 0
-432 -287 -288 -289 -290 608 0
360 -609 0
288 -609 0
289 -609 0
290 -609 0
-360 -288 -289 -290 609 0
361 -610 0
289 -610 0
290 -610 0
-361 -289 -290 610 0
362 -611 0
290 -611 0
-362 -290 611 0
-360 433 0
-602 433 0
360 602 -433 0
-361 434 0
-603 434 0
-604 434 0
361 603 604 -434 0
-362 435 0
-605 435 0
-606 435 0
-607 435 0
362 605 606 607 -435 0
-363 436 0
-608 436 0
-609 436 0
-610 436 0
-611 436 0
363 608 609 610 611 -436 0
436 -612 0
291 -612 0
-436 -291 612 0
436 -613 0
291 -613 0
292 -613 0
-436 -291 -292 613 0
364 -614 0
292 -614 0
-364 -292 614 0
436 -615 0
291 -615 0
292 -615 0
293 -615 0
-436 -291 -292 -293 615 0
364 -616 0
292 -616 0
293 -616 0
-364 -292 -293 616 0
365 -617 0
293 -617 0
-365 -293 617 0
436 -618 0
291 -618 0
292 -618 0
293 -618 0
294 -618 0
-436 -291 -292 -293 -294 618 0
364 -619 0
292 -619 0
293 -619 0
294 -619 0
-364 -292 -293 -294 619 0
365 -620 0
293 -620 0
294 -620 0
-365 -293 -294 620 0
366 -621 0
294 -621 0
-366 -294 621 0
-364 437 0
-612 437 0
364 612 -437 0
-365 438 0
-613 438 0
-614 438 0
365 613 614 -438 0
-366 439 0
-615 439 0
-616 439 0
-617 439 0
366 615 616 617 -439 0
-367 440 0
-618 440 0
-619 440 0
-620 440 0
-621 440 0
367 618 619 620 621 -440 0
440 -622 0
295 -622 0
-440 -295 622 0
-368 441 0
-622 441 0
368 622 -441 0
223 221 -147 0
-223 221 147 0
223 -221 147 0
-223 -221 -147 0
224 369 -148 0
-224 369 148 0
224 -369 148 0
-224 -369 -148 0
225 370 -149 0
-225 370 149 0
225 -370 149 0
-225 -370 -149 0
226 371 -150 0
-226 371 150 0
226 -371 150 0
-226 -371 -150 0
227 372 -151 0
-227 372 151 0
227 -372 151 0
-227 -372 -151 0
228 373 -152 0
-228 373 152 0
228 -373 152 0
-228 -373 -152 0
229 374 -153 0
-229 374 153 0
229 -374 153 0
-229 -374 -153 0
230 375 -154 0
-230 375 154 0
230 -375 154 0
-230 -375 -154 0
231 376 -155 0
-231 376 155 0
231 -376 155 0
-231 -376 -155 0
232 377 -156 0
-232 377 156 0
232 -377 156 0
-232 -377 -156 0
233 378 -157 0
-233 378 157 0
233 -378 157 0
-233 -378 -157 0
234 379 -158 0
-234 379 158 0
234 -379 158 0
-234 -379 -158 0
235 380 -159 0
-235 380 159 0
235 -380 159 0
-235 -380 -159 0
236 381 -160 0
-236 381 160 0
236 -381 160 0
-236 -381 -160 0
237 382 -161 0
-237 382 161 0
237 -382 161 0
-237 -382 -161 0
238 383 -162 0
-238 383 162 0
238 -383 162 0
-238 -383 -162 0
239 384 -163 0
-239 384 163 0
239 -384 163 0
-239 -384 -163 0
240 385 -164 0
-240 385 164 0
240 -385 164 0
-240 -385 -164 0
241 386 -165 0
-241 386 165 0
241 -386 165 0
-241 -386 -165 0
242 387 -166 0
-242 387 166 0
242 -387 166 0
-242 -387 -166 0
243 388 -167 0
-243 388 167 0
243 -388 167 0
-243 -388 -167 0
244 389 -168 0
-244 389 168 0
244 -389 168 0
-244 -389 -168 0
245 390 -169 0
-245 390 169 0
245 -390 169 0
-245 -390 -169 0
246 391 -170 0
-246 391 170 0
246 -391 170 0
-246 -391 -170 0
247 392 -171 0
-247 392 171 0
247 -392 171 0
-247 -392 -171 0
248 393 -172 0
-248 393 172 0
248 -393 172 0
-248 -393 -172 0
249 394 -173 0
-249 394 173 0
249 -394 173 0
-249 -394 -173 0
250 395 -174 0
-250 395 174 0
250 -395 174 0
-250 -395 -174 0
251 396 -175 0
-251 396 175 0
251 -396 175 0
-251 -396 -175 0
252 397 -176 0
-252 397 176 0
252 -397 176 0
-252 -397 -176 0
253 398 -177 0
-253 398 177 0
253 -398 177 0
-253 -398 -177 0
254 399 -178 0
-254 399 178 0
254 -399 178 0
-254 -399 -178 0
255 400 -179 0
-255 400 179 0
255 -400 179 0
-255 -400 -179 0
256 401 -180 0
-256 401 180 0
256 -401 180 0
-256 -401 -180 0
257 402 -181 0
-257 402 181 0
257 -402 181 0
-257 -402 -181 0
258 403 -182 0
-258 403 182 0
258 -403 182 0
-258 -403 -182 0
259 404 -183 0
-259 404 183 0
259 -404 183 0
-259 -404 -183 0
260 405 -184 0
-260 405 184 0
260 -405 184 0
-260 -405 -184 0
261 406 -185 0
-261 406 185 0
261 -406 185 0
-261 -406 -185 0
262 407 -186 0
-262 407 186 0
262 -407 186 0
-262 -407 -186 0
263 408 -187 0
-263 408 187 0
263 -408 187 0
-263 -408 -187 0
264 409 -188 0
-264 409 188 0
264 -409 188 0
-264 -409 -188 0
265 410 -189 0
-265 410 189 0
265 -410 189 0
-265 -410 -189 0
266 411 -190 0
-266 411 190 0
266 -411 190 0
-266 -411 -190 0
267 412 -191 0
-267 412 191 0
267 -412 191 0
-267 -412 -191 0
268 413 -192 0
-268 413 192 0
268 -413 192 0
-268 -413 -192 0
269 414 -193 0
-269 414 193 0
269 -414 193 0
-269 -414 -193 0
270 415 -194 0
-270 415 194 0
270 -415 194 0
-270 -415 -194 0
271 416 -195 0
-271 416 195 0
271 -416 195 0
-271 -416 -195 0
272 417 -196 0
-272 417 196 0
272 -417 196 0
-272 -417 -196 0
273 418 -197 0
-273 418 197 0
273 -418 197 0
-273 -418 -197 0
274 419 -198 0
-274 419 198 0
274 -419 198 0
-274 -419 -198 0
275 420 -199 0
-275 420 199 0
275 -420 199 0
-275 -420 -199 0
276 421 -200 0
-276 421 200 0
276 -421 200 0
-276 -421 -200 0
277 422 -201 0
-277 422 201 0
277 -422 201 0
-277 -422 -201 0
278 423 -202 0
-278 423 202 0
278 -423 202 0
-278 -423 -202 0
279 424 -203 0
-279 424 203 0
279 -424 203 0
-279 -424 -203 0
280 425 -204 0
-280 425 204 0
280 -425 204 0
-280 -425 -204 0
281 426 -205 0
-281 426 205 0
281 -426 205 0
-281 -426 -205 0
282 427 -206 0
-282 427 206 0
282 -427 206 0
-282 -427 -206 0
283 428 -207 0
-283 428 207 0
283 -428 207 0
-283 -428 -207 0
284 429 -208 0
-284 429 208 0
284 -429 208 0
-284 -429 -208 0
285 430 -209 0
-285 430 209 0
285 -430 209 0
-285 -430 -209 0
286 431 -210 0
-286 431 210 0
286 -431 210 0
-286 -431 -210 0
287 432 -211 0
-287 432 211 0
287 -432 211 0
-287 -432 -211 0
288 433 -212 0
-288 433 212 0
288 -433 212 0
-288 -433 -212 0
289 434 -213 0
-289 434 213 0
289 -434 213 0
-289 -434 -213 0
290 435 -214 0
-290 435 214 0
290 -435 214 0
-290 -435 -214 0
291 436 -215 0
-291 436 215 0
291 -436 215 0
-291 -436 -215 0
292 437 -216 0
-292 437 216 0
292 -437 216 0
-292 -437 -216 0
293 438 -217 0
-293 438 217 0
293 -438 217 0
-293 -438 -217 0
294 439 -218 0
-294 439 218 0
294 -439 218 0
-294 -439 -218 0
295 440 -219 0
-295 440 219 0
295 -440 219 0
-295 -440 -219 0
441 -220 0
-441 220 0
